NAME : arr.tsp
TIME : 2020-10-29 14:49:39
COMMENT : hello world
DIMENSION : 9
NODE_COORD_SECTION
0 17.6867 19.9597
1 57.0155 18.5484
2 87.2903 19.1532
3 88.4220 52.8226
4 89.5538 81.6532
5 57.5814 80.2419
6 17.1208 78.8306
7 16.2720 48.9919
8 56.4497 49.5968
EOF
